NAME          MBLEND
ROWS
 G  N
 G  P
 G  K
 G  S
 G  MG
 G  B
 G  ZN
 G  DEN
 E  WT
 N  COST
 N  PRICE
COLUMNS
*234567890123456789012345678901234567890123456789012345678901
    I460000   N             0.460000   DEN           0.020918   
    I460000   WT            1.000000   COST        176.000000   
    I460000   PRICE       220.000000   SCALE      2204.600000   
    I115200   N             0.110000   P             0.520000   
    I115200   DEN           0.015447   WT            1.000000   
    I115200   COST        200.000000   PRICE       250.000000   
    I115200   SCALE      2204.600000   
    I000060   K             0.600000   DEN           0.015471   
    I000060   WT            1.000000   COST        100.000000   
    I000060   PRICE       125.000000   SCALE      2204.600000   
    I210000   N             0.210000   S             0.240000   
    I210000   DEN           0.020492   WT            1.000000   
    I210000   COST        121.000000   PRICE       151.250000   
    I210000   SCALE      2204.600000   
    I184600   N             0.180000   P             0.460000   
    I184600   DEN           0.016065   WT            1.000000   
    I184600   COST        200.000000   PRICE       250.000000   
    I184600   SCALE      2204.600000   
    I004600   P             0.460000   DEN           0.014365   
    I004600   WT            1.000000   COST        158.000000   
    I004600   PRICE       197.500000   SCALE      2204.600000   
    I000022   K             0.220000   S             0.220000   
    I000022   MG            0.110000   DEN           0.010288   
    I000022   WT            1.000000   COST        121.000000   
    I000022   PRICE       151.250000   SCALE      2204.600000   
    I20S36Z   S             0.200000   ZN            0.360000   
    I20S36Z   DEN           0.013057   WT            1.000000   
    I20S36Z   COST        440.000000   PRICE       550.000000   
    I20S36Z   SCALE      2204.600000   
    I14B000   B             0.143000   DEN           0.021971   
    I14B000   WT            1.000000   COST        463.000000   
    I14B000   PRICE       578.750000   SCALE      2204.600000   
    I000000   DEN           0.011156   WT            1.000000   
    I000000   COST         30.000000   PRICE        37.500000   
    I000000   SCALE      2204.600000   
    PRODUCT   WT           -1.000000   COST          0.000000   
    PRODUCT   PRICE         0.000000   SCALE         1.000000   
*234567890123456789012345678901234567890123456789012345678901
RHS
RANGES
ENDATA
